20	5
0	4	2	4	1	3
1	2	13	17
2	1	11
3	3	7	11	17
4	2	11	10
5	2	18	13
6	1	19
7	2	8	5
8	2	13	12
9	1	16
10	2	8	5
11	2	8	5
12	3	18	6	20
13	2	20	9
14	1	6
15	1	14
16	1	15
17	1	21
18	1	21
19	1	21
20	1	21
21	0
0	0	0	0	0	0	0
1	9	0	0	0	0	1
2	8	0	4	0	2	0
3	6	0	0	3	3	0
4	2	0	0	1	0	4
5	8	1	4	5	0	0
6	5	0	0	1	0	4
7	10	0	3	3	4	1
8	3	0	0	3	0	4
9	1	3	2	4	2	0
10	5	2	1	3	2	3
11	5	0	4	0	0	0
12	10	0	0	1	0	0
13	8	0	1	0	0	2
14	1	0	0	0	5	5
15	2	0	5	0	1	5
16	10	2	5	0	3	1
17	3	0	0	4	0	0
18	4	4	3	2	2	0
19	2	0	0	1	0	4
20	8	0	1	1	0	3
21	0	0	0	0	0	0
4	5	5	5	5
